study/exp-portion-fine-grain-4v100/run-logs-backup-12-06/unsupervised_samgraph_cache_graphsage_kKHop2_com-friendster_coll_cache_asymm_link_2_cache_rate_004_batch_size_2000_concurrent_impl_MPS.log
config:eval_tsp="2022-12-05 17:00:36"
config:arch=arch5
config:num_train_worker=3
config:num_sample_worker=1
config:sample_type=khop2
config:root_path=/nvme/graph-learning-copy/samgraph/
config:dataset=com-friendster
config:pipeline=False
config:cache_policy=coll_cache_asymm_link
config:cache_percentage=0.04
config:num_epoch=4
config:batch_size=2000
config:num_hidden=256
config:max_sampling_jobs=1
config:max_copying_jobs=1
config:barriered_epoch=1
config:presample_epoch=2
config:omp_thread_num=13
config:unsupervised=True
config:amp=True
config:rolling=0
config:fanout=[25, 10]
config:lr=0.003
config:dropout=0.5
config:single_gpu=False
config:max_num_step=1000
config:validate_configs=False
config:report_acc=0
config:dataset_path=/nvme/graph-learning-copy/samgraph/com-friendster
config:torch_thread_num=13
config:train_workers=['cuda:0', 'cuda:1', 'cuda:2']
config:sample_workers=['cuda:3']
config:num_fanout=2
config:num_layer=2
config:_run_mode=RunMode.FGNN
config:_log_level=warn
config:_profile_level=3
config:_empty_feat=0
config:_arch=5
config:_sample_type=5
config:_cache_policy=13
test_result:init:input_scale_factor=1.1
0 :  {link #0 : 1}, {link #1 : 2},
1 :  {link #0 : 2}, {link #1 : 0},
2 :  {link #0 : 0}, {link #1 : 1},
0 :  {link #0 : 1}, {link #1 : 2},
1 :  {link #0 : 2}, {link #1 : 0},
2 :  {link #0 : 0}, {link #1 : 1},
0 :  {link #0 : 1}, {link #1 : 2},
1 :  {link #0 : 2}, {link #1 : 0},
2 :  {link #0 : 0}, {link #1 : 1},
Set parameter WLSAccessID
Set parameter WLSSecret
Set parameter LicenseID
Set parameter TimeLimit to value 200
Set parameter MIPGap to value 0.05
Set parameter GomoryPasses to value 0
Set parameter Aggregate to value 0
Set parameter LogFile to value "cppsolver.log"
Set parameter Threads to value 26
Academic license - for non-commercial use only - registered to xiaoniu.sxn@sjtu.edu.cn
Gurobi Optimizer version 9.5.1 build v9.5.1rc2 (linux64)
Thread count: 40 physical cores, 80 logical processors, using up to 26 threads
Academic license - for non-commercial use only - registered to xiaoniu.sxn@sjtu.edu.cn
Optimize a model with 21582 rows, 10274 columns and 64716 nonzeros
Model fingerprint: 0x2c56bb6d
Variable types: 4 continuous, 10270 integer (10270 binary)
Coefficient statistics:
  Matrix range     [2e-04, 2e+03]
  Objective range  [1e+00, 1e+00]
  Bounds range     [1e+00, 1e+00]
  RHS range        [1e+00, 2e+03]
Found heuristic solution: objective 2.000000e+09
Presolve removed 12326 rows and 0 columns
Presolve time: 0.09s
Presolved: 9256 rows, 10274 columns, 38012 nonzeros
Found heuristic solution: objective 110785.01867
Variable types: 4 continuous, 10270 integer (10270 binary)

Root relaxation: objective 4.211458e+04, 8318 iterations, 0.16 seconds (0.13 work units)

    Nodes    |    Current Node    |     Objective Bounds      |     Work
 Expl Unexpl |  Obj  Depth IntInf | Incumbent    BestBd   Gap | It/Node Time

     0     0 42114.5842    0   13 110785.019 42114.5842  62.0%     -    0s
H    0     0                    42261.483443 42114.5842  0.35%     -    0s

Explored 1 nodes (11209 simplex iterations) in 0.38 seconds (0.29 work units)
Thread count was 26 (of 80 available processors)

Solution count 3: 42261.5 110785 2e+09 

Optimal solution found (tolerance 5.00e-02)
Best objective 4.226148344276e+04, best bound 4.211458422987e+04, gap 0.3476%
coll_cache:optimal_local_rate=0.231138,0.203257,0.219503,
coll_cache:optimal_remote_rate=0.42276,0.450641,0.434395,
coll_cache:optimal_cpu_rate=0.346102,0.346102,0.346102,
z=42261.5
test_result:init:feat_nbytes=67182966784
test_result:init:cache_nbytes=2693112832
test_result:init:feat_nbytes=67182966784
test_result:init:cache_nbytes=2693190656
test_result:init:feat_nbytes=67182966784
test_result:init:cache_nbytes=2692839424
[Train  Worker 1/3] Started with PID 127111(Tesla V100-SXM2-16GB)
[Train  Worker 1] run train for 4 epochs with 1002 steps
[Train  Worker 2/3] Started with PID 127114(Tesla V100-SXM2-16GB)
[Train  Worker 2] run train for 4 epochs with 1002 steps
[CUDA] cuda0: usage: 9.97 GB
[SAM] cuda0 data alloc        : 0.00 Bytes
[SAM] cuda0 workspace         : 2.72 GB
[SAM] cuda0 workspace reserve : 1.35 GB
[SAM] cuda0 total             : 2.72 GB
[Train  Worker 0/3] Started with PID 127109(Tesla V100-SXM2-16GB)
[Train  Worker 0] run train for 4 epochs with 1002 steps
Epoch 00000 | Epoch Time 17.3557 | Total Train Time(Profiler) 4.2687 | Copy Time 13.0550
[CUDA] cuda0: usage: 9.97 GB
[SAM] cuda0 data alloc        : 0.00 Bytes
[SAM] cuda0 workspace         : 2.72 GB
[SAM] cuda0 workspace reserve : 1.35 GB
[SAM] cuda0 total             : 2.72 GB
Epoch 00001 | Epoch Time 16.2431 | Total Train Time(Profiler) 3.1756 | Copy Time 13.0372
[CUDA] cuda0: usage: 9.97 GB
[SAM] cuda0 data alloc        : 0.00 Bytes
[SAM] cuda0 workspace         : 2.72 GB
[SAM] cuda0 workspace reserve : 1.35 GB
[SAM] cuda0 total             : 2.72 GB
Epoch 00002 | Epoch Time 16.2255 | Total Train Time(Profiler) 3.1667 | Copy Time 13.0300
[CUDA] cuda0: usage: 9.97 GB
[SAM] cuda0 data alloc        : 0.00 Bytes
[SAM] cuda0 workspace         : 2.72 GB
[SAM] cuda0 workspace reserve : 1.35 GB
[SAM] cuda0 total             : 2.72 GB
Epoch 00003 | Epoch Time 16.2040 | Total Train Time(Profiler) 3.1393 | Copy Time 13.0359
[Train  Worker 1] Avg Epoch Time 16.2243 | Train Total Time(Profiler) 3.1301 | Copy Time 13.0628
[Train  Worker 0] Avg Epoch Time 16.2242 | Train Total Time(Profiler) 3.1605 | Copy Time 13.0344
[Train  Worker 2] Avg Epoch Time 16.2244 | Train Total Time(Profiler) 3.1699 | Copy Time 13.0249
    [Step(average) Profiler Level 1 E3 S1001]
        L1  sample           0.005458 | send           0.001270
        L1  recv             0.000000 | copy           0.000000 | convert time 0.000000 | train  0.000000
        L1  feature nbytes 0.00 Bytes | label nbytes 0.00 Bytes
        L1  id nbytes      0.00 Bytes | graph nbytes 0.00 Bytes
        L1  miss nbytes    0.00 Bytes | remote nbytes 0.00 Bytes
        L1  num nodes         1262373 | num samples     1406651
    [Step(average) Profiler Level 2 E3 S1001]
        L2  shuffle     0.000075 | core sample  0.001983 | id remap        0.003215
        L2  graph copy  0.000000 | id copy      0.000000 | cache feat copy 0.000000
        L2  last layer sample time 0.000301 | size 57481.586826
    [Step(average) Profiler Level 3 E3 S1001]
        L3  khop sample coo  0.001676 | khop sort coo      0.000000 | khop count edge     0.000037 | khop compact edge 0.000218
        L3  walk sample coo  0.000000 | walk topk total    0.000000 | walk topk step1     0.000000 | walk topk step2   0.000000
        L3  walk topk step3  0.000000 | walk topk step4    0.000000 | walk topk step5     0.000000
        L3  walk topk step6  0.000000 | walk topk step7    0.000000
        L3  remap unique     0.000174 | remap populate     0.002735 | remap mapnode       0.000000 | remap mapedge     0.000493
        L3  cache get_index  0.000000 | cache copy_index   0.000000 | cache extract_miss  0.000000
        L3  cache copy_miss  0.000000 | cache combine_miss 0.000000 | cache combine cache 0.000000 | cache combine remote 0.000000
        L3  label extract  0.000000
    [Init Profiler Level 1]
        L1  init     6.6576 | sampler init    50.7916 | trainer init 0.0000
    [Init Profiler Level 2]
        L2  load ds        10.0786 | init queue          23.5957
        L2  presample      22.0400 | build interal ds     1.7320
        L2  build cache     0.0000
    [Init Profiler Level 3]
        L3  load dataset: mmap     6.6547 | copy         3.4239
        L3  dist queue: alloc      0.0007 | pin         23.5950 | push     0.0000
        L3  presample: init        0.1791
        L3  presample: sample     10.9538 | copy         0.7931
        L3  presample: count       9.6646 | sort         0.2017
        L3  presample: reset       0.0013 | get rank     0.0252
        L3  internal: cuda ctx     1.4764 | cuda stream     0.2495
[Sample Worker 0/1] Started with PID 127107(Tesla V100-SXM2-16GB)
[Sample Worker 0] run sample for 4 epochs with 1002 steps
[Sample Worker 0] Avg Sample Total Time 6.7523 | Sampler Total Time(Profiler) 6.7412
test_result:sample_time=5.4685
test_result:get_cache_miss_index_time=0.0000
test_result:enqueue_samples_time=1.2727
test_result:epoch_time:sample_total=6.7523
[CUDA] cuda0: usage: 9.97 GB
[SAM] cuda0 data alloc        : 0.00 Bytes
[SAM] cuda0 workspace         : 2.72 GB
[SAM] cuda0 workspace reserve : 1.35 GB
[SAM] cuda0 total             : 2.72 GB
    [Step(average) Profiler Level 1 E3 S1001]
        L1  sample           0.000000 | send           0.000000
        L1  recv             0.001423 | copy           0.039044 | convert time 0.000455 | train  0.008986
        L1  feature nbytes    1.20 GB | label nbytes   15.62 KB
        L1  id nbytes      0.00 Bytes | graph nbytes 0.00 Bytes
        L1  miss nbytes     430.48 MB | remote nbytes  534.85 MB
        L1  num nodes               0 | num samples           0
    [Step(average) Profiler Level 2 E3 S1001]
        L2  shuffle     0.000000 | core sample  0.000000 | id remap        0.000000
        L2  graph copy  0.000003 | id copy      0.000000 | cache feat copy 0.037618
        L2  last layer sample time 0.000000 | size 0.000000
    [Step(average) Profiler Level 3 E3 S1001]
        L3  khop sample coo  0.000000 | khop sort coo      0.000000 | khop count edge     0.000000 | khop compact edge 0.000000
        L3  walk sample coo  0.000000 | walk topk total    0.000000 | walk topk step1     0.000000 | walk topk step2   0.000000
        L3  walk topk step3  0.000000 | walk topk step4    0.000000 | walk topk step5     0.000000
        L3  walk topk step6  0.000000 | walk topk step7    0.000000
        L3  remap unique     0.000000 | remap populate     0.000000 | remap mapnode       0.000000 | remap mapedge     0.000000
        L3  cache get_index  0.000788 | cache copy_index   0.000000 | cache extract_miss  0.000000
        L3  cache copy_miss  0.000000 | cache combine_miss 0.036800 | cache combine cache 0.000873 | cache combine remote 0.007068
        L3  label extract  0.000017
    [Step(max) Profiler Level 1 E3 S1001]
        L1  sample           0.000000 | send           0.000000
        L1  recv             0.000000 | copy           0.000000 | convert time 0.000000 | train  0.000000
        L1  feature nbytes 0.00 Bytes | label nbytes 0.00 Bytes
        L1  id nbytes      0.00 Bytes | graph nbytes   10.88 MB
        L1  miss nbytes    0.00 Bytes | remote nbytes 0.00 Bytes
        L1  num nodes               0 | num samples           0
    [Step(max) Profiler Level 2 E3 S1001]
        L2  shuffle     0.000000 | core sample  0.000000 | id remap        0.000000
        L2  graph copy  0.000000 | id copy      0.000000 | cache feat copy 0.000000
        L2  last layer sample time 0.000000 | size 0.000000
    [Step(max) Profiler Level 3 E3 S1001]
        L3  khop sample coo  0.000000 | khop sort coo      0.000000 | khop count edge     0.000000 | khop compact edge 0.000000
        L3  walk sample coo  0.000000 | walk topk total    0.000000 | walk topk step1     0.000000 | walk topk step2   0.000000
        L3  walk topk step3  0.000000 | walk topk step4    0.000000 | walk topk step5     0.000000
        L3  walk topk step6  0.000000 | walk topk step7    0.000000
        L3  remap unique     0.000000 | remap populate     0.000000 | remap mapnode       0.000000 | remap mapedge     0.000000
        L3  cache get_index  0.000000 | cache copy_index   0.000000 | cache extract_miss  0.000000
        L3  cache copy_miss  0.000000 | cache combine_miss 0.000000 | cache combine cache 0.000000 | cache combine remote 0.000000
        L3  label extract  0.000000
    [Step(min) Profiler Level 1 E3 S1001]
        L1  sample           0.000000 | send           0.000000
        L1  recv             0.000000 | copy           0.000000 | convert time 0.000000 | train  0.000000
        L1  feature nbytes 0.00 Bytes | label nbytes 0.00 Bytes
        L1  id nbytes      0.00 Bytes | graph nbytes   10.60 MB
        L1  miss nbytes    0.00 Bytes | remote nbytes 0.00 Bytes
        L1  num nodes               0 | num samples           0
    [Step(min) Profiler Level 2 E3 S1001]
        L2  shuffle     0.000000 | core sample  0.000000 | id remap        0.000000
        L2  graph copy  0.000000 | id copy      0.000000 | cache feat copy 0.000000
        L2  last layer sample time 0.000000 | size 0.000000
    [Step(min) Profiler Level 3 E3 S1001]
        L3  khop sample coo  0.000000 | khop sort coo      0.000000 | khop count edge     0.000000 | khop compact edge 0.000000
        L3  walk sample coo  0.000000 | walk topk total    0.000000 | walk topk step1     0.000000 | walk topk step2   0.000000
        L3  walk topk step3  0.000000 | walk topk step4    0.000000 | walk topk step5     0.000000
        L3  walk topk step6  0.000000 | walk topk step7    0.000000
        L3  remap unique     0.000000 | remap populate     0.000000 | remap mapnode       0.000000 | remap mapedge     0.000000
        L3  cache get_index  0.000000 | cache copy_index   0.000000 | cache extract_miss  0.000000
        L3  cache copy_miss  0.000000 | cache combine_miss 0.000000 | cache combine cache 0.000000 | cache combine remote 0.000000
        L3  label extract  0.000000
    [Init Profiler Level 1]
        L1  init     6.6576 | sampler init     0.0000 | trainer init 83.9871
    [Init Profiler Level 2]
        L2  load ds         6.6547 | init queue          23.5332
        L2  presample       0.0000 | build interal ds     1.4804
        L2  build cache    58.9736
    [Init Profiler Level 3]
        L3  load dataset: mmap     6.6547 | copy         0.0000
        L3  dist queue: alloc      0.0007 | pin         23.5325 | push     0.0000
        L3  presample: init        0.0000
        L3  presample: sample      0.0000 | copy         0.0000
        L3  presample: count       0.0000 | sort         0.0000
        L3  presample: reset       0.0000 | get rank     0.0000
        L3  internal: cuda ctx     1.4804 | cuda stream     0.0001
|===========================================================================|
|                  PyTorch CUDA memory summary, device ID 0                 |
|---------------------------------------------------------------------------|
|            CUDA OOMs: 0            |        cudaMalloc retries: 0         |
|===========================================================================|
|        Metric         | Cur Usage  | Peak Usage | Tot Alloc  | Tot Freed  |
|---------------------------------------------------------------------------|
| Allocated memory      |   17829 KB |  780228 KB |    2018 GB |    2018 GB |
|       from large pool |   12953 KB |  778801 KB |    2005 GB |    2005 GB |
|       from small pool |    4876 KB |    6636 KB |      12 GB |      12 GB |
|---------------------------------------------------------------------------|
| Active memory         |   17830 KB |  780228 KB |    2018 GB |    2018 GB |
|       from large pool |   12953 KB |  778801 KB |    2005 GB |    2005 GB |
|       from small pool |    4877 KB |    6636 KB |      12 GB |      12 GB |
|---------------------------------------------------------------------------|
| GPU reserved memory   |     774 MB |     774 MB |     774 MB |       0 B  |
|       from large pool |     766 MB |     766 MB |     766 MB |       0 B  |
|       from small pool |       8 MB |       8 MB |       8 MB |       0 B  |
|---------------------------------------------------------------------------|
| Non-releasable memory |   19034 KB |  686026 KB |    1945 GB |    1945 GB |
|       from large pool |   17767 KB |  684158 KB |    1930 GB |    1930 GB |
|       from small pool |    1267 KB |    3118 KB |      15 GB |      15 GB |
|---------------------------------------------------------------------------|
| Allocations           |      39    |      56    |  183068    |  183029    |
|       from large pool |       3    |      14    |   65464    |   65461    |
|       from small pool |      36    |      45    |  117604    |  117568    |
|---------------------------------------------------------------------------|
| Active allocs         |      40    |      56    |  183068    |  183028    |
|       from large pool |       3    |      14    |   65464    |   65461    |
|       from small pool |      37    |      45    |  117604    |  117567    |
|---------------------------------------------------------------------------|
| GPU reserved segments |      10    |      10    |      10    |       0    |
|       from large pool |       6    |       6    |       6    |       0    |
|       from small pool |       4    |       4    |       4    |       0    |
|---------------------------------------------------------------------------|
| Non-releasable allocs |      13    |      24    |   80336    |   80323    |
|       from large pool |       2    |       9    |   42022    |   42020    |
|       from small pool |      11    |      18    |   38314    |   38303    |
|---------------------------------------------------------------------------|
| Oversize allocations  |       0    |       0    |       0    |       0    |
|---------------------------------------------------------------------------|
| Oversize GPU segments |       0    |       0    |       0    |       0    |
|===========================================================================|

test_result:epoch_time:copy_time=13.0344
test_result:convert_time=0.1470
test_result:train_time=3.0136
test_result:epoch_time:train_total=3.1605
test_result:cache_percentage=0.0400
test_result:cache_hit_rate=1.0000
test_result:run_time=93.0500
